\Problem name: 

Minimize
OBJROW: x_1 + x_2 + x_3 + x_4 + x_5 + x_6 + x_7
Subject To
constr(0):  x_1 + x_4 + x_5 + x_6 + x_7 >= 10
constr(1):  x_1 + x_2 + x_5 + x_6 + x_7 >= 6
constr(2):  x_1 + x_2 + x_3 + x_6 + x_7 >= 8
constr(3):  x_1 + x_2 + x_3 + x_4 + x_7 >= 5
constr(4):  x_1 + x_2 + x_3 + x_4 + x_5 >= 9
constr(5):  x_2 + x_3 + x_4 + x_5 + x_6 >= 4
constr(6):  x_3 + x_4 + x_5 + x_6 + x_7 >= 6
Bounds
Integers
x_1 x_2 x_3 x_4 x_5 x_6 x_7 
End
